Sun 20 May 09:07:31 CEST 2018
CPXPARAM_TimeLimit                               45
CPXPARAM_Threads                                 4
CPXPARAM_MIP_Strategy_CallbackReducedLP          0
Tried aggregator 7 times.
MIP Presolve eliminated 4587 rows and 4202 columns.
MIP Presolve modified 6504 coefficients.
Aggregator did 13021 substitutions.
Reduced MIP has 16194 rows, 11658 columns, and 36340 nonzeros.
Reduced MIP has 10877 binaries, 11 generals, 0 SOSs, and 1380 indicators.
Presolve time = 0.22 sec. (482.75 ticks)
Found incumbent of value 27.000000 after 0.31 sec. (570.65 ticks)
Probing time = 0.31 sec. (124.94 ticks)
Tried aggregator 3 times.
Aggregator did 7680 substitutions.
Reduced MIP has 8514 rows, 3978 columns, and 20980 nonzeros.
Reduced MIP has 3197 binaries, 781 generals, 0 SOSs, and 1380 indicators.
Presolve time = 0.04 sec. (42.60 ticks)
Probing time = 0.06 sec. (36.44 ticks)
Tried aggregator 1 time.
Reduced MIP has 8514 rows, 3978 columns, and 20980 nonzeros.
Reduced MIP has 3197 binaries, 781 generals, 0 SOSs, and 1380 indicators.
Presolve time = 0.02 sec. (18.64 ticks)
Probing time = 0.01 sec. (5.53 ticks)
Clique table members: 80482.
MIP emphasis: balance optimality and feasibility.
MIP search method: dynamic search.
Parallel mode: deterministic, using up to 4 threads.
Root relaxation solution time = 0.11 sec. (106.67 ticks)

        Nodes                                         Cuts/
   Node  Left     Objective  IInf  Best Integer    Best Bound    ItCnt     Gap

*     0+    0                           27.0000        0.0000           100.00%
      0     0        0.0000  2108       27.0000        0.0000     1142  100.00%
*     0+    0                           25.0000        0.0000           100.00%
      0     0        0.0000  1783       25.0000 Cliques: 2228     1428  100.00%
*     0+    0                           14.0000        0.0000           100.00%
      0     0        0.0000  1324       14.0000 Cliques: 2228     1761  100.00%
      0     0        0.0000   834       14.0000 Cliques: 2228     2349  100.00%

Repeating presolve.
Tried aggregator 3 times.
MIP Presolve eliminated 4910 rows and 1883 columns.
MIP Presolve modified 4 coefficients.
Aggregator did 10 substitutions.
Reduced MIP has 3594 rows, 1785 columns, and 8894 nonzeros.
Reduced MIP has 1454 binaries, 331 generals, 0 SOSs, and 600 indicators.
Presolve time = 0.02 sec. (18.47 ticks)
Probing time = 0.03 sec. (34.01 ticks)
Tried aggregator 1 time.
MIP Presolve eliminated 2 rows and 2 columns.
Reduced MIP has 3592 rows, 1783 columns, and 8890 nonzeros.
Reduced MIP has 1452 binaries, 331 generals, 0 SOSs, and 600 indicators.
Presolve time = 0.01 sec. (8.46 ticks)
Represolve time = 0.25 sec. (444.81 ticks)
Probing time = 0.00 sec. (3.47 ticks)
Clique table members: 14524.
MIP emphasis: balance optimality and feasibility.
MIP search method: dynamic search.
Parallel mode: deterministic, using up to 4 threads.
Root relaxation solution time = 0.21 sec. (263.07 ticks)

        Nodes                                         Cuts/
   Node  Left     Objective  IInf  Best Integer    Best Bound    ItCnt     Gap

*     0+    0                           14.0000        0.0000           100.00%
      0     0        0.0000   419       14.0000        0.0000     2360  100.00%
      0     0        0.0000   285       14.0000      Cuts: 29     2433  100.00%
      0     0        0.0000   351       14.0000     Cuts: 466     2521  100.00%
      0     0        0.0000   368       14.0000     Cuts: 565     2699  100.00%
      0     2        0.0000   368       14.0000        0.0000     2699  100.00%
Elapsed time = 25.40 sec. (16098.07 ticks, tree = 0.01 MB, solutions = 3)
    161   147       12.0000   180       14.0000        4.0000    10441   71.43%
    457   315        6.0000   175       14.0000        4.0000    19092   71.43%
    670   380        6.0000   132       14.0000        4.0000    27578   71.43%
    723   386        4.0000   227       14.0000        4.0000    37700   71.43%
    798   389    infeasible             14.0000        4.0000    46544   71.43%
    871   404        9.0000    99       14.0000        4.0000    54580   71.43%
    953   417        4.0000   183       14.0000        4.0000    63625   71.43%
   1117   441        4.0000   225       14.0000        4.0000    70548   71.43%
   1210   475        4.0000   178       14.0000        4.0000    83432   71.43%
   1623   504        cutoff             14.0000        4.0000   121095   71.43%
Elapsed time = 28.92 sec. (19228.41 ticks, tree = 0.72 MB, solutions = 3)
   2030   565        4.0000   187       14.0000        4.0000   150687   71.43%
   2655   652        4.0000   185       14.0000        4.0000   191006   71.43%
   3255   821        4.0000   189       14.0000        4.0000   228549   71.43%
   3633   965        0.0000   382       14.0000        4.0000   263739   71.43%
   3691    52        0.0000   292       14.0000        4.0000   268376   71.43%
   3782    96       13.0000    73       14.0000        4.0000   279435   71.43%
   3867   131        3.0000   202       14.0000        4.0000   283656   71.43%
   4013   222       10.0000   285       14.0000        4.0000   294012   71.43%
   4150   269        4.0000   177       14.0000        4.0000   298939   71.43%
   4269   397       11.0000   104       14.0000        4.0000   309315   71.43%
Elapsed time = 42.08 sec. (30588.45 ticks, tree = 6.37 MB, solutions = 3)
   4344   444        6.0000   160       14.0000        4.0000   313165   71.43%
   4460   503    infeasible             14.0000        4.0000   323460   71.43%

GUB cover cuts applied:  2
Clique cuts applied:  5273
Cover cuts applied:  9
Implied bound cuts applied:  219
Zero-half cuts applied:  35
Gomory fractional cuts applied:  28

Root node processing (before b&c):
  Real time             =   25.38 sec. (16082.35 ticks)
Parallel b&c, 4 threads:
  Real time             =   19.63 sec. (17154.91 ticks)
  Sync time (average)   =    1.50 sec.
  Wait time (average)   =    0.01 sec.
                          ------------
Total (root+branch&cut) =   45.01 sec. (33237.25 ticks)
   | W
 L |  0 1 2 3 4 
---------------
 0 |  . 6 6 6 6 
 1 |  . 6 6 6 6 
 2 |  . 6 6 6 6 
 3 |  . 6 6 6 6 
 4 |  . 5 5 5 5 
 5 |  8 5 5 5 5 
 6 |  . 3 3 3 3 
 7 |  . 3 3 3 3 
 8 |  . 4 4 4 4 
 9 |  7 4 4 4 4 
10 |  . 2 2 2 2 
11 |  9 2 2 2 2 
12 |  . 1 1 1 1 
13 | 10 1 1 1 1 
14 |  . . . . . 
15 |  . . . . . 
16 |  . . . . . 
17 |  . . . . . 
18 |  . . . . . 
19 |  . . . . . 
20 |  . . . . . 
21 |  . . . . . 
22 |  . . . . . 
23 |  . . . . . 
24 |  . . . . . 
25 |  . . . . . 
26 |  . . . . . 
27 |  . . . . . 

Boxes' corners:       (w,l)
    Box  1 is at 
        top left     (1,12)
        bottom right (4,13)

    Box  2 is at 
        top left     (1,10)
        bottom right (4,11)

    Box  3 is at 
        top left     (1,6)
        bottom right (4,7)

    Box  4 is at 
        top left     (1,8)
        bottom right (4,9)

    Box  5 is at 
        top left     (1,4)
        bottom right (4,5)

    Box  6 is at 
        top left     (1,0)
        bottom right (4,3)

    Box  7 is at 
        top left     (0,9)
        bottom right (0,9)

    Box  8 is at 
        top left     (0,5)
        bottom right (0,5)

    Box  9 is at 
        top left     (0,11)
        bottom right (0,11)

    Box 10 is at 
        top left     (0,13)
        bottom right (0,13)

    Roll length used: 14
In 174.08 seconds
